Route 1: 6 37 42 15 2 21 26 12 28 27
Route 2: 18 7 48 47 8 45 5 13 1
Route 3: 3 29 34 35 9 20 30 33 50
Route 4: 19 11 36 49 32 10 31
Route 5: 40 41 22 23 39 24 4 25
Route 6: 43 14 44 38 16 17 46
Vehicles: 6
Distance: 765.28
